B=5;
D=1;
P=9;
S=9;
demands = [1 3 4 3 4 2 2 3 5 ];
capacities = [7 7 5 7 10 10 3 2 5 ];
dist_start = [6 5 6 8 1 4 1 9 3 ];
dist = [7 4 9 10 8 6 10 1 7 10 6 1 2 6 10 5 5 4 10 10 1 5 4 8 4 7 1 6 7 5 8 4 10 6 5 10 1 4 10 10 6 5 2 7 10 3 2 7 6 3 6 8 9 1 7 2 9 8 7 6 2 6 1 4 3 5 3 6 9 2 7 6 8 8 4 10 1 7 6 8 9 ];
